Route #1: 1 50 74 37 68 67 71 39 59 33 73 34 1
Route #2: 1 14 43 52 78 4 40 61 32 1
Route #3: 1 41 22 8 2 63 45 1
Route #4: 1 54 77 51 23 46 5 55 65 1
Route #5: 1 11 64 12 25 7 31 28 6 1
Route #6: 1 42 26 16 56 57 70 66 36 27 20 48 76 21 1
Route #7: 1 72 15 53 29 80 49 19 35 1
Route #8: 1 38 3 9 69 62 17 44 79 47 1
Route #9: 1 24 13 30 75 18 1
Route #10: 1 10 58 60 1
cost 2115
